<?xml version="1.0"?>
<VTKFile type="UnstructuredGrid" version="0.1" byte_order="LittleEndian" header_type="UInt32" compressor="vtkZLibDataCompressor">
  <UnstructuredGrid>
    <Piece NumberOfPoints="3" NumberOfCells="3">
      <PointData>
        <DataArray type="Int32" Name="FEM_NODE_ID" format="ascii" RangeMin="1" RangeMax="3">
          3 2 1
        </DataArray>
        <DataArray type="Float32" Name="DISPLACEMENT" NumberOfComponents="3" format="ascii" RangeMin="0" RangeMax="0.017638342952648337">
          0 0 0 0.01666666753590107 -0.005773502867668867 0
          -1.4141003089378577e-18 0 0
          <InformationKey name="L2_NORM_RANGE" location="vtkDataArray" length="2">
            <Value index="0">
              0
            </Value>
            <Value index="1">
              0.017638342953
            </Value>
          </InformationKey>
        </DataArray>
        <DataArray type="Float32" Name="REACTION LOADS" NumberOfComponents="3" format="ascii" RangeMin="0.05773502588272095" RangeMax="0.11547005461028276">
          -0.10000000149011612 -0.05773502588272095 0 0.10000000149011612 -1.3877787807814457e-17 0
          -1.2938771011966539e-33 0.05773502588272095 0
          <InformationKey name="L2_NORM_RANGE" location="vtkDataArray" length="2">
            <Value index="0">
              0.057735025883
            </Value>
            <Value index="1">
              0.11547005461
            </Value>
          </InformationKey>
        </DataArray>
      </PointData>
      <CellData>
        <DataArray type="Int32" Name="FEM_ELEMENT_ID" format="ascii" RangeMin="1" RangeMax="3">
          1 2 3
        </DataArray>
        <Array type="String" Name="FEM_ELEMENT_TYPE" format="ascii">
          114 111 100 0 114 111 100 0 114 111 100 0
        </Array>
        <DataArray type="Float32" Name="STRAIN" NumberOfComponents="2" format="ascii" RangeMin="1.7319121003077158e-18" RangeMax="0.016329932115714537">
          0.011547005735337734 0.011547005735337734 -0.005773502867668867 -0.005773502867668867 1.224646790546622e-18 1.224646790546622e-18
          <InformationKey name="L2_NORM_RANGE" location="vtkDataArray" length="2">
            <Value index="0">
              1.7319121003e-18
            </Value>
            <Value index="1">
              0.016329932116
            </Value>
          </InformationKey>
        </DataArray>
        <DataArray type="Float32" Name="STRESS" NumberOfComponents="2" format="ascii" RangeMin="3.4638241421249293e-17" RangeMax="0.32659862650922256">
          0.2309401035308838 0.2309401035308838 -0.1154700517654419 -0.1154700517654419 2.4492935397342132e-17 2.4492935397342132e-17
          <InformationKey name="L2_NORM_RANGE" location="vtkDataArray" length="2">
            <Value index="0">
              3.4638241421e-17
            </Value>
            <Value index="1">
              0.32659862651
            </Value>
          </InformationKey>
        </DataArray>
      </CellData>
      <Points>
        <DataArray type="Float32" Name="Points" NumberOfComponents="3" format="ascii" RangeMin="0" RangeMax="1">
          0 0 0 0 1 0
          -0.8660253882408142 0.5 0
          <InformationKey name="L2_NORM_RANGE" location="vtkDataArray" length="2">
            <Value index="0">
              0
            </Value>
            <Value index="1">
              1
            </Value>
          </InformationKey>
        </DataArray>
      </Points>
      <Cells>
        <DataArray type="Int64" Name="connectivity" format="ascii" RangeMin="0" RangeMax="2">
          0 1 1 2 2 0
        </DataArray>
        <DataArray type="Int64" Name="offsets" format="ascii" RangeMin="2" RangeMax="6">
          2 4 6
        </DataArray>
        <DataArray type="UInt8" Name="types" format="ascii" RangeMin="3" RangeMax="3">
          3 3 3
        </DataArray>
      </Cells>
    </Piece>
  </UnstructuredGrid>
</VTKFile>
