<?xml version="1.0"?>
<VTKFile type="UnstructuredGrid" version="0.1" byte_order="LittleEndian" header_type="UInt32" compressor="vtkZLibDataCompressor">
  <UnstructuredGrid>
    <Piece NumberOfPoints="4" NumberOfCells="3">
      <PointData>
        <DataArray type="Int32" Name="FEM_NODE_ID" format="ascii" RangeMin="1" RangeMax="4">
          1 2 3 4
        </DataArray>
        <DataArray type="Float32" Name="DISPLACEMENT" NumberOfComponents="3" format="ascii" RangeMin="0" RangeMax="0.7248832949545829">
          0 0 0 0.7174723148345947 0.0008898003143258393 -0.1033850908279419
          0.714767336845398 -0.003389800200238824 -0.06951077282428741 0 0 0
          <InformationKey name="L2_NORM_RANGE" location="vtkDataArray" length="2">
            <Value index="0">
              0
            </Value>
            <Value index="1">
              0.72488329495
            </Value>
          </InformationKey>
        </DataArray>
        <DataArray type="Float32" Name="REACTION LOADS" NumberOfComponents="3" format="ascii" RangeMin="32.54270738996268" RangeMax="173.0369432906123">
          -45.90095901489258 -17.796005249023438 136.29095458984375 100 -25 -20.83333396911621
          1.8189894035458565e-12 -25 20.83333396911621 -54.09904098510742 67.79600524902344 149.72901916503906
          <InformationKey name="L2_NORM_RANGE" location="vtkDataArray" length="2">
            <Value index="0">
              32.54270739
            </Value>
            <Value index="1">
              173.03694329
            </Value>
          </InformationKey>
        </DataArray>
      </PointData>
      <CellData>
        <DataArray type="Int32" Name="FEM_ELEMENT_ID" format="ascii" RangeMin="1" RangeMax="3">
          1 2 3
        </DataArray>
        <Array type="String" Name="FEM_ELEMENT_TYPE" format="ascii">
          98 101 97 109 0 98 101 97 109 0 98 101 97 109 0
        </Array>
        <DataArray type="Float32" Name="STRAIN" NumberOfComponents="2" format="ascii" RangeMin="0.002514496081579203" RangeMax="0.007314760989883672">
          -0.00499129481613636 0.005347214639186859 0.0011527257738634944 -0.0022347066551446915 0.0027975784614682198 -0.004153498448431492
          <InformationKey name="L2_NORM_RANGE" location="vtkDataArray" length="2">
            <Value index="0">
              0.0025144960816
            </Value>
            <Value index="1">
              0.0073147609899
            </Value>
          </InformationKey>
        </DataArray>
        <DataArray type="Float32" Name="STRESS" NumberOfComponents="2" format="ascii" RangeMin="502.89919996040203" RangeMax="1462.9522101845218">
          -998.2589111328125 1069.4429931640625 230.54515075683594 -446.9413146972656 559.5156860351562 -830.69970703125
          <InformationKey name="L2_NORM_RANGE" location="vtkDataArray" length="2">
            <Value index="0">
              502.89919996
            </Value>
            <Value index="1">
              1462.9522102
            </Value>
          </InformationKey>
        </DataArray>
      </CellData>
      <Points>
        <DataArray type="Float32" Name="Points" NumberOfComponents="3" format="ascii" RangeMin="0" RangeMax="7.0710678118654755">
          0 0 0 0 5 0
          5 5 0 5 0 0
          <InformationKey name="L2_NORM_RANGE" location="vtkDataArray" length="2">
            <Value index="0">
              0
            </Value>
            <Value index="1">
              7.0710678119
            </Value>
          </InformationKey>
        </DataArray>
      </Points>
      <Cells>
        <DataArray type="Int64" Name="connectivity" format="ascii" RangeMin="0" RangeMax="3">
          0 1 1 2 2 3
        </DataArray>
        <DataArray type="Int64" Name="offsets" format="ascii" RangeMin="2" RangeMax="6">
          2 4 6
        </DataArray>
        <DataArray type="UInt8" Name="types" format="ascii" RangeMin="3" RangeMax="3">
          3 3 3
        </DataArray>
      </Cells>
    </Piece>
  </UnstructuredGrid>
</VTKFile>
