<?xml version="1.0"?>
<VTKFile type="UnstructuredGrid" version="0.1" byte_order="LittleEndian" header_type="UInt32" compressor="vtkZLibDataCompressor">
  <UnstructuredGrid>
    <Piece NumberOfPoints="5" NumberOfCells="6">
      <PointData>
        <DataArray type="Int32" Name="FEM_NODE_ID" format="ascii" RangeMin="1" RangeMax="5">
          1 2 3 4 5
        </DataArray>
        <DataArray type="Float32" Name="DISPLACEMENT" NumberOfComponents="3" format="ascii" RangeMin="0" RangeMax="0.9756656862865604">
          0 0 0 -0.0774037167429924 -0.8963344693183899 0
          0 0 0 -0.06129813939332962 -0.9737381935119629 0
          0.20000000298023224 -0.4000000059604645 0
          <InformationKey name="L2_NORM_RANGE" location="vtkDataArray" length="2">
            <Value index="0">
              0
            </Value>
            <Value index="1">
              0.97566568629
            </Value>
          </InformationKey>
        </DataArray>
        <DataArray type="Float32" Name="REACTION LOADS" NumberOfComponents="3" format="ascii" RangeMin="1.553249816033673e-14" RangeMax="30.390066278344918">
          -18.389442443847656 24.194721221923828 0 8.323008208400615e-16 1.5510182927499366e-14 0
          4.597360610961914 0 0 -8.326672684688674e-16 -30 0
          13.792081832885742 5.805278778076172 0
          <InformationKey name="L2_NORM_RANGE" location="vtkDataArray" length="2">
            <Value index="0">
              1.553249816e-14
            </Value>
            <Value index="1">
              30.390066278
            </Value>
          </InformationKey>
        </DataArray>
      </PointData>
      <CellData>
        <DataArray type="Int32" Name="FEM_ELEMENT_ID" format="ascii" RangeMin="1" RangeMax="6">
          1 2 3 4 5 6
        </DataArray>
        <Array type="String" Name="FEM_ELEMENT_TYPE" format="ascii">
          114 111 100 0 114 111 100 0 114 111 100 0 114 111 100 0 114 111 100 0 114 111 100 0
        </Array>
        <DataArray type="Float32" Name="STRAIN" NumberOfComponents="2" format="ascii" RangeMin="0.043344330039141614" RangeMax="0.322596277480931">
          -0.0387018583714962 -0.0387018583714962 -0.03064906969666481 -0.03064906969666481 0.22811001539230347 0.22811001539230347
          0.0387018583714962 0.0387018583714962 0.13064907491207123 0.13064907491207123 -0.05473269522190094 -0.05473269522190094
          <InformationKey name="L2_NORM_RANGE" location="vtkDataArray" length="2">
            <Value index="0">
              0.043344330039
            </Value>
            <Value index="1">
              0.32259627748
            </Value>
          </InformationKey>
        </DataArray>
        <DataArray type="Float32" Name="STRESS" NumberOfComponents="2" format="ascii" RangeMin="1.3003299117109606" RangeMax="9.677888155840536">
          -1.1610558032989502 -1.1610558032989502 -0.9194720983505249 -0.9194720983505249 6.8433003425598145 6.8433003425598145
          1.1610558032989502 1.1610558032989502 3.9194722175598145 3.9194722175598145 -1.641980767250061 -1.641980767250061
          <InformationKey name="L2_NORM_RANGE" location="vtkDataArray" length="2">
            <Value index="0">
              1.3003299117
            </Value>
            <Value index="1">
              9.6778881558
            </Value>
          </InformationKey>
        </DataArray>
      </CellData>
      <Points>
        <DataArray type="Float32" Name="Points" NumberOfComponents="3" format="ascii" RangeMin="0" RangeMax="4.47213595499958">
          0 0 0 2 0 0
          0 -2 0 2 -2 0
          4 -2 0
          <InformationKey name="L2_NORM_RANGE" location="vtkDataArray" length="2">
            <Value index="0">
              0
            </Value>
            <Value index="1">
              4.472135955
            </Value>
          </InformationKey>
        </DataArray>
      </Points>
      <Cells>
        <DataArray type="Int64" Name="connectivity" format="ascii" RangeMin="0" RangeMax="4">
          0 1 2 3 0 3
          1 3 3 4 1 4
        </DataArray>
        <DataArray type="Int64" Name="offsets" format="ascii" RangeMin="2" RangeMax="12">
          2 4 6 8 10 12
        </DataArray>
        <DataArray type="UInt8" Name="types" format="ascii" RangeMin="3" RangeMax="3">
          3 3 3 3 3 3
        </DataArray>
      </Cells>
    </Piece>
  </UnstructuredGrid>
</VTKFile>
